20
90.0
0 1 2.0 3.0
0 2 3.0 2.0
0 3 3.0 3.0
0 4 5.0 2.0
0 5 4.0 6.0
0 6 8.0 4.0
0 7 6.0 5.0
0 8 5.0 3.0
0 9 6.0 6.0
0 10 6.0 7.0
0 11 8.0 5.0
0 12 4.0 7.0
0 13 3.0 8.0
0 14 4.0 2.0
0 15 5.0 4.0
0 16 3.0 4.0
0 17 3.0 6.0
0 18 2.0 2.0
0 19 9.0 6.0
1 2 6.0 2.0
1 3 5.0 5.0
1 4 7.0 5.0
1 5 9.0 6.0
1 6 4.0 7.0
1 7 5.0 9.0
1 8 5.0 8.0
1 9 3.0 9.0
1 10 2.0 9.0
1 11 3.0 7.0
1 12 5.0 6.0
1 13 1.0 4.0
1 14 2.0 6.0
1 15 3.0 4.0
1 16 9.0 6.0
1 17 1.0 7.0
1 18 6.0 4.0
1 19 3.0 3.0
2 3 5.0 1.0
2 4 3.0 3.0
2 5 7.0 6.0
2 6 8.0 7.0
2 7 3.0 3.0
2 8 5.0 7.0
2 9 9.0 3.0
2 10 7.0 7.0
2 11 2.0 8.0
2 12 3.0 5.0
2 13 5.0 4.0
2 14 7.0 2.0
2 15 6.0 1.0
2 16 3.0 3.0
2 17 7.0 4.0
2 18 5.0 6.0
2 19 5.0 4.0
3 4 4.0 5.0
3 5 7.0 8.0
3 6 4.0 7.0
3 7 7.0 8.0
3 8 5.0 9.0
3 9 3.0 9.0
3 10 2.0 8.0
3 11 5.0 7.0
3 12 2.0 6.0
3 13 5.0 5.0
3 14 7.0 3.0
3 15 9.0 4.0
3 16 3.0 5.0
3 17 4.0 6.0
3 18 9.0 7.0
3 19 7.0 9.0
4 5 3.0 7.0
4 6 4.0 6.0
4 7 4.0 5.0
4 8 6.0 4.0
4 9 8.0 3.0
4 10 9.0 2.0
4 11 5.0 3.0
4 12 4.0 4.0
4 13 3.0 5.0
4 14 5.0 6.0
4 15 6.0 7.0
4 16 7.0 8.0
4 17 6.0 9.0
4 18 5.0 7.0
4 19 5.0 5.0
5 6 7.0 4.0
5 7 9.0 3.0
5 8 6.0 5.0
5 9 7.0 3.0
5 10 8.0 6.0
5 11 7.0 7.0
5 12 5.0 6.0
5 13 5.0 5.0
5 14 7.0 4.0
5 15 4.0 3.0
5 16 6.0 3.0
5 17 5.0 4.0
5 18 7.0 5.0
5 19 5.0 6.0
6 7 2.0 7.0
6 8 2.0 8.0
6 9 6.0 9.0
6 10 9.0 2.0
6 11 1.0 3.0
6 12 4.0 4.0
6 13 9.0 1.0
6 14 1.0 2.0
6 15 3.0 3.0
6 16 8.0 4.0
6 17 1.0 6.0
6 18 8.0 8.0
6 19 3.0 5.0
7 8 6.0 9.0
7 9 4.0 5.0
7 10 6.0 4.0
7 11 3.0 2.0
7 12 6.0 4.0
7 13 9.0 5.0
7 14 3.0 7.0
7 15 2.0 8.0
7 16 1.0 9.0
7 17 4.0 6.0
7 18 4.0 3.0
7 19 5.0 4.0
8 9 5.0 5.0
8 10 4.0 6.0
8 11 8.0 4.0
8 12 9.0 5.0
8 13 1.0 4.0
8 14 3.0 5.0
8 15 5.0 4.0
8 16 8.0 3.0
8 17 4.0 5.0
8 18 6.0 6.0
8 19 6.0 7.0
9 10 3.0 8.0
9 11 2.0 3.0
9 12 3.0 4.0
9 13 1.0 6.0
9 14 1.0 3.0
9 15 1.0 3.0
9 16 5.0 2.0
9 17 7.0 3.0
9 18 9.0 4.0
9 19 4.0 2.0
10 11 8.0 3.0
10 12 6.0 4.0
10 13 6.0 3.0
10 14 5.0 3.0
10 15 5.0 4.0
10 16 5.0 4.0
10 17 3.0 5.0
10 18 1.0 6.0
10 19 1.0 7.0
11 12 2.0 8.0
11 13 3.0 9.0
11 14 2.0 7.0
11 15 4.0 6.0
11 16 4.0 4.0
11 17 5.0 5.0
11 18 6.0 6.0
11 19 4.0 4.0
12 13 8.0 4.0
12 14 9.0 5.0
12 15 7.0 4.0
12 16 6.0 2.0
12 17 4.0 3.0
12 18 3.0 5.0
12 19 2.0 6.0
13 14 3.0 2.0
13 15 4.0 4.0
13 16 3.0 5.0
13 17 6.0 7.0
13 18 2.0 8.0
13 19 5.0 6.0
14 15 4.0 4.0
14 16 3.0 2.0
14 17 2.0 3.0
14 18 3.0 4.0
14 19 4.0 4.0
15 16 5.0 2.0
15 17 6.0 4.0
15 18 1.0 6.0
15 19 7.0 7.0
16 17 8.0 8.0
16 18 8.0 8.0
16 19 8.0 9.0
17 18 6.0 4.0
17 19 5.0 5.0
18 19 7.0 3.0